10 45
1 2 1805 1 3 1511 1 4 1807 1 5 1477 1 6 1923 1 7 791 1 8 66 1 9 887 1 10 1846 2 3 1822 2 4 1981 2 5 1121 2 6 900 2 7 533 2 8 729 2 9 1258 2 10 1877 3 4 14 3 5 837 3 6 380 3 7 235 3 8 1594 3 9 224 3 10 1773 4 5 238 4 6 1669 4 7 292 4 8 105 4 9 1582 4 10 593 5 6 1245 5 7 1305 5 8 182 5 9 890 5 10 756 6 7 228 6 8 51 6 9 1388 6 10 1191 7 8 1374 7 9 932 7 10 150 8 9 396 8 10 399 9 10 533 